presolving:
(round 1, fast)       209 del vars, 418 del conss, 0 add conss, 6897 chg bounds, 0 chg sides, 0 chg coeffs, 0 upgd conss, 0 impls, 10 clqs
   (0.1s) running MILP presolver
   (0.1s) MILP presolver found nothing
(round 2, exhaustive) 209 del vars, 418 del conss, 0 add conss, 6897 chg bounds, 0 chg sides, 0 chg coeffs, 10 upgd conss, 0 impls, 10 clqs
   (0.3s) probing cycle finished: starting next cycle
   (0.3s) symmetry computation started: requiring (bin +, int -, cont +), (fixed: bin -, int +, cont -)
   (0.3s) no symmetry present
presolving (3 rounds: 3 fast, 2 medium, 2 exhaustive):
 209 deleted vars, 418 deleted constraints, 0 added constraints, 6897 tightened bounds, 0 added holes, 0 changed sides, 0 changed coefficients
 7848 implications, 10 cliques
presolved problem has 7106 variables (209 bin, 0 int, 0 impl, 6897 cont) and 1079 constraints
     10 constraints of type <setppc>
   1069 constraints of type <linear>
Presolving Time: 0.25

 time | node  | left  |LP iter|LP it/n|mem/heur|mdpt |vars |cons |rows |cuts |sepa|confs|strbr|  dualbound   | primalbound  |  gap   | compl. 
  0.4s|     1 |     0 |   536 |     - |    59M |   0 |7106 |1080 |1079 |   0 |  0 |   1 |   0 | 1.137076e+05 |      --      |    Inf | unknown
o 0.5s|     1 |     0 |  2994 |     - |feaspump|   0 |7106 |1080 |1079 |   0 |  0 |   1 |   0 | 1.137076e+05 | 2.261235e+05 |  98.86%| unknown
  0.6s|     1 |     0 |  3258 |     - |    62M |   0 |7106 |1080 |1121 |  42 |  1 |   1 |   0 | 1.424174e+05 | 2.261235e+05 |  58.78%| unknown
i 0.9s|     1 |     0 |  4699 |     - |  oneopt|   0 |7106 |1080 |1121 |  42 |  1 |   1 |   0 | 1.424174e+05 | 2.233818e+05 |  56.85%| unknown
  1.0s|     1 |     0 |  5093 |     - |    62M |   0 |7106 |1080 |1145 |  66 |  2 |   1 |   0 | 1.533897e+05 | 2.233818e+05 |  45.63%| unknown
  1.2s|     1 |     0 |  5390 |     - |    63M |   0 |7106 |1080 |1167 |  88 |  3 |   1 |   0 | 1.612321e+05 | 2.233818e+05 |  38.55%| unknown
  1.4s|     1 |     0 |  5674 |     - |    63M |   0 |7106 |1080 |1185 | 106 |  4 |   1 |   0 | 1.647710e+05 | 2.233818e+05 |  35.57%| unknown
  1.6s|     1 |     0 |  6061 |     - |    63M |   0 |7106 |1080 |1220 | 141 |  5 |   1 |   0 | 1.704170e+05 | 2.233818e+05 |  31.08%| unknown
  1.8s|     1 |     0 |  6357 |     - |    63M |   0 |7106 |1080 |1242 | 163 |  6 |   1 |   0 | 1.722478e+05 | 2.233818e+05 |  29.69%| unknown
  2.1s|     1 |     0 |  6620 |     - |    65M |   0 |7106 |1080 |1257 | 178 |  7 |   1 |   0 | 1.735560e+05 | 2.233818e+05 |  28.71%| unknown
  2.4s|     1 |     0 |  6990 |     - |    65M |   0 |7106 |1080 |1273 | 194 |  8 |   1 |   0 | 1.749292e+05 | 2.233818e+05 |  27.70%| unknown
  2.7s|     1 |     0 |  7370 |     - |    66M |   0 |7106 |1080 |1286 | 207 |  9 |   1 |   0 | 1.754417e+05 | 2.233818e+05 |  27.33%| unknown
  3.2s|     1 |     0 |  8084 |     - |    67M |   0 |7106 |1080 |1321 | 242 | 10 |   1 |   0 | 1.766121e+05 | 2.233818e+05 |  26.48%| unknown
  3.5s|     1 |     0 |  8444 |     - |    67M |   0 |7106 |1080 |1335 | 257 | 11 |   1 |   0 | 1.771155e+05 | 2.233818e+05 |  26.12%| unknown
  3.9s|     1 |     0 |  9090 |     - |    67M |   0 |7106 |1080 |1350 | 272 | 12 |   1 |   0 | 1.775845e+05 | 2.233818e+05 |  25.79%| unknown
 time | node  | left  |LP iter|LP it/n|mem/heur|mdpt |vars |cons |rows |cuts |sepa|confs|strbr|  dualbound   | primalbound  |  gap   | compl. 
  4.3s|     1 |     0 |  9435 |     - |    67M |   0 |7106 |1080 |1361 | 283 | 13 |   1 |   0 | 1.780215e+05 | 2.233818e+05 |  25.48%| unknown
  4.8s|     1 |     0 | 10274 |     - |    68M |   0 |7106 |1080 |1400 | 322 | 14 |   1 |   0 | 1.787357e+05 | 2.233818e+05 |  24.98%| unknown
  5.4s|     1 |     0 | 11033 |     - |    68M |   0 |7106 |1080 |1427 | 349 | 15 |   1 |   0 | 1.792813e+05 | 2.233818e+05 |  24.60%| unknown
  5.8s|     1 |     0 | 11392 |     - |    69M |   0 |7106 |1080 |1443 | 365 | 16 |   1 |   0 | 1.794777e+05 | 2.233818e+05 |  24.46%| unknown
  6.2s|     1 |     0 | 11716 |     - |    69M |   0 |7106 |1080 |1431 | 377 | 17 |   1 |   0 | 1.796065e+05 | 2.233818e+05 |  24.37%| unknown
  6.8s|     1 |     0 | 12374 |     - |    70M |   0 |7106 |1080 |1464 | 410 | 18 |   1 |   0 | 1.798250e+05 | 2.233818e+05 |  24.22%| unknown
  7.4s|     1 |     0 | 13066 |     - |    70M |   0 |7106 |1080 |1485 | 431 | 19 |   1 |   0 | 1.800333e+05 | 2.233818e+05 |  24.08%| unknown
  7.8s|     1 |     0 | 13369 |     - |    70M |   0 |7106 |1080 |1496 | 442 | 20 |   1 |   0 | 1.800913e+05 | 2.233818e+05 |  24.04%| unknown
  8.3s|     1 |     0 | 13737 |     - |    72M |   0 |7106 |1080 |1507 | 453 | 21 |   1 |   0 | 1.801566e+05 | 2.233818e+05 |  23.99%| unknown
  8.7s|     1 |     0 | 14031 |     - |    72M |   0 |7106 |1080 |1517 | 463 | 22 |   1 |   0 | 1.801835e+05 | 2.233818e+05 |  23.97%| unknown
  9.3s|     1 |     0 | 14702 |     - |    72M |   0 |7106 |1080 |1497 | 483 | 23 |   1 |   0 | 1.803065e+05 | 2.233818e+05 |  23.89%| unknown
  9.8s|     1 |     0 | 15147 |     - |    72M |   0 |7106 |1080 |1520 | 506 | 24 |   1 |   0 | 1.803484e+05 | 2.233818e+05 |  23.86%| unknown
 10.3s|     1 |     0 | 15616 |     - |    72M |   0 |7106 |1080 |1540 | 526 | 25 |   1 |   0 | 1.804145e+05 | 2.233818e+05 |  23.82%| unknown
 10.7s|     1 |     0 | 15810 |     - |    72M |   0 |7106 |1080 |1547 | 533 | 26 |   1 |   0 | 1.804353e+05 | 2.233818e+05 |  23.80%| unknown
 11.2s|     1 |     0 | 16192 |     - |    72M |   0 |7106 |1080 |1560 | 546 | 27 |   1 |   0 | 1.804737e+05 | 2.233818e+05 |  23.78%| unknown
 time | node  | left  |LP iter|LP it/n|mem/heur|mdpt |vars |cons |rows |cuts |sepa|confs|strbr|  dualbound   | primalbound  |  gap   | compl. 
 11.7s|     1 |     0 | 16619 |     - |    72M |   0 |7106 |1080 |1573 | 559 | 28 |   1 |   0 | 1.805068e+05 | 2.233818e+05 |  23.75%| unknown
 12.1s|     1 |     0 | 16666 |     - |    72M |   0 |7106 |1080 |1508 | 560 | 29 |   1 |   0 | 1.805079e+05 | 2.233818e+05 |  23.75%| unknown
 12.6s|     1 |     0 | 16905 |     - |    72M |   0 |7106 |1080 |1515 | 567 | 30 |   1 |   0 | 1.805148e+05 | 2.233818e+05 |  23.75%| unknown
 13.0s|     1 |     0 | 17062 |     - |    72M |   0 |7106 |1080 |1528 | 580 | 31 |   1 |   0 | 1.805201e+05 | 2.233818e+05 |  23.74%| unknown
 13.3s|     1 |     0 | 17449 |     - |    72M |   0 |7106 |1080 |1540 | 592 | 32 |   1 |   0 | 1.805251e+05 | 2.233818e+05 |  23.74%| unknown
 13.7s|     1 |     0 | 17713 |     - |    72M |   0 |7106 |1080 |1553 | 605 | 33 |   1 |   0 | 1.805275e+05 | 2.233818e+05 |  23.74%| unknown
 14.1s|     1 |     0 | 17806 |     - |    72M |   0 |7106 |1080 |1559 | 611 | 34 |   1 |   0 | 1.805282e+05 | 2.233818e+05 |  23.74%| unknown
 14.3s|     1 |     0 | 17982 |     - |    72M |   0 |7106 |1080 |1515 | 613 | 35 |   1 |   0 | 1.805296e+05 | 2.233818e+05 |  23.74%| unknown
 14.6s|     1 |     0 | 18053 |     - |    72M |   0 |7106 |1080 |1518 | 616 | 36 |   1 |   0 | 1.805310e+05 | 2.233818e+05 |  23.74%| unknown
 14.6s|     1 |     0 | 18071 |     - |    72M |   0 |7106 |1080 |1520 | 618 | 37 |   1 |   0 | 1.805311e+05 | 2.233818e+05 |  23.74%| unknown
L30.1s|     1 |     0 | 36882 |     - |    rens|   0 |7106 |1080 |1520 | 618 | 38 |   1 |   0 | 1.805311e+05 | 1.829635e+05 |   1.35%| unknown
 30.3s|     1 |     0 | 36882 |     - |    74M |   0 |7106 |1080 |1520 | 618 | 38 |   1 |   0 | 1.805311e+05 | 1.829635e+05 |   1.35%| unknown
 30.3s|     1 |     0 | 36882 |     - |    75M |   0 |7106 |1080 |1519 | 618 | 38 |   1 |   0 | 1.805311e+05 | 1.829635e+05 |   1.35%| unknown
 30.4s|     1 |     0 | 36882 |     - |    75M |   0 |7106 |1070 |1519 | 618 | 40 |   1 |   0 | 1.805311e+05 | 1.829635e+05 |   1.35%| unknown
 38.2s|     1 |     2 | 36882 |     - |    75M |   0 |7106 |1070 |1519 | 618 | 42 |   1 |  23 | 1.808316e+05 | 1.829635e+05 |   1.18%| unknown
(run 1, node 1) restarting after 9 global fixings of integer variables

(restart) converted 432 cuts from the global cut pool into linear constraints

presolving:
(round 1, fast)       306 del vars, 0 del conss, 0 add conss, 0 chg bounds, 0 chg sides, 0 chg coeffs, 0 upgd conss, 7848 impls, 9 clqs
(round 2, exhaustive) 306 del vars, 0 del conss, 0 add conss, 0 chg bounds, 0 chg sides, 0 chg coeffs, 10 upgd conss, 7848 impls, 9 clqs
presolving (3 rounds: 3 fast, 2 medium, 2 exhaustive):
 306 deleted vars, 0 deleted constraints, 0 added constraints, 0 tightened bounds, 0 added holes, 0 changed sides, 0 changed coefficients
 7848 implications, 9 cliques
presolved problem has 6800 variables (200 bin, 0 int, 0 impl, 6600 cont) and 1502 constraints
      9 constraints of type <setppc>
   1482 constraints of type <linear>
     11 constraints of type <logicor>
Presolving Time: 0.30
transformed 3/3 original solutions to the transformed problem space

 time | node  | left  |LP iter|LP it/n|mem/heur|mdpt |vars |cons |rows |cuts |sepa|confs|strbr|  dualbound   | primalbound  |  gap   | compl. 
 41.4s|     1 |     0 | 47405 |     - |    75M |   0 |6800 |1502 |1501 |   0 |  0 |   1 |  23 | 1.808316e+05 | 1.829635e+05 |   1.18%| unknown
 41.4s|     1 |     0 | 47405 |     - |    75M |   0 |6800 |1502 |1501 |   0 |  0 |   1 |  23 | 1.808316e+05 | 1.829635e+05 |   1.18%| unknown
 42.0s|     1 |     0 | 48572 |     - |    76M |   0 |6800 |1502 |1536 |  35 |  1 |   1 |  23 | 1.808316e+05 | 1.829635e+05 |   1.18%| unknown
 42.0s|     1 |     0 | 48572 |     - |    76M |   0 |6800 |1502 |1536 |  35 |  1 |   1 |  23 | 1.808316e+05 | 1.829635e+05 |   1.18%| unknown
 42.1s|     1 |     0 | 48588 |     - |    76M |   0 |6800 |1502 |1538 |  37 |  2 |   1 |  23 | 1.808316e+05 | 1.829635e+05 |   1.18%| unknown
 42.2s|     1 |     0 | 48588 |     - |    76M |   0 |6800 |1499 |1538 |  37 |  4 |   1 |  23 | 1.808316e+05 | 1.829635e+05 |   1.18%| unknown
 52.3s|     1 |     2 | 48693 |     - |    77M |   0 |6800 |1500 |1538 |  37 |  6 |2013 |  42 | 1.808316e+05 | 1.829635e+05 |   1.18%| unknown
  106s|   100 |    11 | 81754 | 519.8 |    84M |  16 |6800 |1505 |1408 | 216 |  7 |2095 | 419 | 1.816943e+05 | 1.829635e+05 |   0.70%|  37.22%
  116s|   200 |    11 |102640 | 364.3 |    90M |  18 |6800 |1480 |1364 | 290 |  4 |2393 | 579 | 1.819696e+05 | 1.829635e+05 |   0.55%|  70.17%

SCIP Status        : problem is solved [optimal solution found]
Solving Time (sec) : 117.04
Solving Nodes      : 227 (total of 228 nodes in 2 runs)
Primal Bound       : +1.82963519422892e+05 (66 solutions)
Dual Bound         : +1.82963519422892e+05
Gap                : 0.00 %
Solve Status: optimal
Solve Time: 117.04 seconds
